CPXPARAM_Emphasis_MIP#P8#2#5.261637#1.000000
CPXPARAM_Emphasis_MIP#P8#5#2.298524#0.436846
CPXPARAM_MIP_Cuts_Cliques#P13#0#1.066555#0.202704
CPXPARAM_MIP_Cuts_Cliques#P13#2#4.101141#0.779442
CPXPARAM_MIP_Cuts_MIRCut#P20#2#4.513213#0.857758
CPXPARAM_MIP_Strategy_NodeSelect#P39#1#4.341885#0.825197
CPXPARAM_MIP_Strategy_NodeSelect#P39#2#4.347427#0.826250
CPXPARAM_MIP_Strategy_NodeSelect#P39#3#1.334267#0.253584
